p cnf 20 20
-4 19 -9 0
-1 11 -14 0
13 17 -5 0
-11 -4 -12 0
-1 3 -2 0
-2 7 5 0
-19 6 -16 0
-9 14 13 0
8 20 16 0
-4 12 -17 0
10 -2 -20 0
-7 12 13 0
-10 -1 -2 0
-11 9 17 0
-6 -9 -14 0
6 -17 -2 0
8 14 19 0
10 16 -8 0
-14 -6 15 0
12 -20 -19 0
